
The Gurobi software has a limited number of licenses. To request a license or
licenses, add this line

    #SBATCH --licenses=gurobi@slurmdb:1

to your SBATCH script, replacing N with the number of licenses you need. Gurobi
will need one license per process.



Starting CP-SAT solver v9.12.4544
Parameters: log_search_progress: true
Setting number of workers to 36

Initial satisfaction model '': (model_fingerprint: 0xc95df4f54441a874)
#Variables: 5'498'083
  - 5'498'083 Booleans in [0,1]
#kBoolAnd: 5'135'175 (#enforced: 5'135'175) (#literals: 15'405'525)
#kBoolOr: 1 (#literals: 345)
#kLinear1: 10'270'559 (#enforced: 10'270'545)
#kLinear2: 3'191'450 (#enforced: 2'166)
#kLinear3: 4'957 (#enforced: 4'635)
#kLinearN: 698'266 (#enforced: 355'875) (#terms: 8'308'005)

Starting presolve at 3.25s
  4.37e+00s  0.00e+00d  [DetectDominanceRelations] 
  3.78e+01s  0.00e+00d  [PresolveToFixPoint] #num_loops=3 #num_dual_strengthening=2 
  1.76e-01s  0.00e+00d  [ExtractEncodingFromLinear] #potential_supersets=12 
  6.59e-01s  0.00e+00d  [DetectDuplicateColumns] 
  3.13e+00s  0.00e+00d  [DetectDuplicateConstraints] 
[Symmetry] Problem too large. Skipping. You can use symmetry_level:3 or more to force it.
[SAT presolve] num removable Booleans: 5497529 / 5497874
[SAT presolve] num trivial clauses: 0
[SAT presolve] [0s] clauses:14165436 literals:35610638 vars:5497874 one_side_vars:0 simple_definition:5135204 singleton_clauses:0
[SAT presolve] [5.86768s] clauses:14165422 literals:35610543 vars:5497874 one_side_vars:0 simple_definition:5135204 singleton_clauses:0
[SAT presolve] [8.40009s] clauses:14163691 literals:35605844 vars:5497419 one_side_vars:0 simple_definition:5135175 singleton_clauses:0
  4.36e-01s  0.00e+00d  [DetectDuplicateConstraintsWithDifferentEnforcements] #without_enforcements=7'169 
  9.36e+00s  1.04e+00d *[Probe] #probed=18 #fixed_bools=2'975'391 #equiv=33 #new_binary_clauses=83'559 
  4.47e+01s  2.84e+01d *[MaxClique] Merged 13'458'521(26'917'198 literals) into 13'458'415(26'916'986 literals) at_most_ones. 
  3.79e+00s  0.00e+00d  [DetectDominanceRelations] 
  1.82e+01s  0.00e+00d  [PresolveToFixPoint] #num_loops=16 #num_dual_strengthening=8 
  1.54e+00s  0.00e+00d  [ProcessAtMostOneAndLinear] 
  1.98e+00s  0.00e+00d  [DetectDuplicateConstraints] 
  1.90e+00s  0.00e+00d  [DetectDuplicateConstraintsWithDifferentEnforcements] 
  3.25e-01s  2.82e-07d  [DetectDominatedLinearConstraints] #relevant_constraints=10 
  2.79e-01s  0.00e+00d  [DetectDifferentVariables] 
  4.87e+00s  6.12e-02d  [ProcessSetPPC] #relevant_constraints=6'153'181 #num_inclusions=1'139'485 
  5.14e-01s  0.00e+00d  [FindAlmostIdenticalLinearConstraints] 
  1.59e+00s  2.71e-01d  [FindBigAtMostOneAndLinearOverlap] 
  4.35e-01s  7.51e-02d  [FindBigVerticalLinearOverlap] 
  3.96e-01s  4.70e-07d  [FindBigHorizontalLinearOverlap] #linears=10 
  1.31e+00s  1.82e-02d  [MergeClauses] #num_collisions=20 #num_merges=20 #num_saved_literals=100 
  3.19e+00s  0.00e+00d  [DetectDominanceRelations] 
  9.54e+00s  0.00e+00d  [PresolveToFixPoint] #num_loops=2 #num_dual_strengthening=2 
  3.64e+00s  0.00e+00d  [DetectDominanceRelations] 
  6.74e+00s  0.00e+00d  [PresolveToFixPoint] #num_loops=1 #num_dual_strengthening=1 
  4.90e-01s  0.00e+00d  [DetectDuplicateColumns] 
  7.67e-01s  0.00e+00d  [DetectDuplicateConstraints] #duplicates=1'204 
[Symmetry] Problem too large. Skipping. You can use symmetry_level:3 or more to force it.
[SAT presolve] num removable Booleans: 2423627 / 2423775
[SAT presolve] num trivial clauses: 0
[SAT presolve] [0s] clauses:6059723 literals:14818006 vars:2423775 one_side_vars:0 simple_definition:2219692 singleton_clauses:0
[SAT presolve] [2.30962s] clauses:6059693 literals:14817484 vars:2423775 one_side_vars:0 simple_definition:2219697 singleton_clauses:0
[SAT presolve] [3.5939s] clauses:6047702 literals:14801307 vars:2412647 one_side_vars:0 simple_definition:2208741 singleton_clauses:0
  6.67e-01s  0.00e+00d  [DetectDuplicateConstraintsWithDifferentEnforcements] #without_enforcements=4'102 
  9.58e+00s  1.08e+00d *[Probe] #probed=25 #fixed_bools=480'714 #equiv=66'733 #new_binary_clauses=57'237 
  2.07e+01s  1.14e+01d *[MaxClique] 
  3.67e+00s  0.00e+00d  [DetectDominanceRelations] 
  1.97e+01s  0.00e+00d  [PresolveToFixPoint] #num_loops=11 #num_dual_strengthening=8 
  1.54e+00s  0.00e+00d  [ProcessAtMostOneAndLinear] 
  1.75e+00s  0.00e+00d  [DetectDuplicateConstraints] #duplicates=28'757 
  1.56e+00s  0.00e+00d  [DetectDuplicateConstraintsWithDifferentEnforcements] 
  3.61e-01s  2.52e-07d  [DetectDominatedLinearConstraints] #relevant_constraints=10 
  3.31e-01s  0.00e+00d  [DetectDifferentVariables] 
  4.14e+00s  4.39e-02d  [ProcessSetPPC] #relevant_constraints=4'545'573 #num_inclusions=823'948 
  6.15e-01s  0.00e+00d  [FindAlmostIdenticalLinearConstraints] 
  1.05e+00s  1.87e-01d  [FindBigAtMostOneAndLinearOverlap] 
  3.22e-01s  5.50e-02d  [FindBigVerticalLinearOverlap] 
  6.42e-01s  4.20e-07d  [FindBigHorizontalLinearOverlap] #linears=10 
  1.48e+00s  1.35e-02d  [MergeClauses] #num_collisions=4'973 #num_merges=4'973 #num_saved_literals=9'975 
  3.12e+00s  0.00e+00d  [DetectDominanceRelations] 
  9.91e+00s  0.00e+00d  [PresolveToFixPoint] #num_loops=3 #num_dual_strengthening=2 
  3.54e+00s  0.00e+00d  [DetectDominanceRelations] 
  6.64e+00s  0.00e+00d  [PresolveToFixPoint] #num_loops=1 #num_dual_strengthening=1 
  4.17e-01s  0.00e+00d  [DetectDuplicateColumns] 
  8.28e-01s  0.00e+00d  [DetectDuplicateConstraints] #duplicates=2'478 
[Symmetry] Problem too large. Skipping. You can use symmetry_level:3 or more to force it.
[SAT presolve] num removable Booleans: 1685188 / 1685296
[SAT presolve] num trivial clauses: 0
[SAT presolve] [0s] clauses:4160696 literals:10071806 vars:1685296 one_side_vars:0 simple_definition:1532613 singleton_clauses:0
[SAT presolve] [1.64538s] clauses:4160139 literals:10067515 vars:1685296 one_side_vars:384 simple_definition:1532232 singleton_clauses:0
[SAT presolve] [3.3295s] clauses:4041569 literals:10247159 vars:1574101 one_side_vars:0 simple_definition:905317 singleton_clauses:0
  8.13e-01s  0.00e+00d  [DetectDuplicateConstraintsWithDifferentEnforcements] #without_enforcements=470 
  9.62e+00s  1.02e+00d *[Probe] #probed=49 #fixed_bools=37'716 #equiv=50'252 #new_binary_clauses=74'510 
  1.17e+01s  7.16e+00d *[MaxClique] Merged 3'543'001(7'086'002 literals) into 3'542'667(7'085'669 literals) at_most_ones. 
  3.30e+00s  0.00e+00d  [DetectDominanceRelations] 
  1.03e+01s  0.00e+00d  [PresolveToFixPoint] #num_loops=2 #num_dual_strengthening=2 
  1.84e+00s  0.00e+00d  [ProcessAtMostOneAndLinear] 
  1.60e+00s  0.00e+00d  [DetectDuplicateConstraints] #duplicates=20'118 
  1.67e+00s  0.00e+00d  [DetectDuplicateConstraintsWithDifferentEnforcements] 
  5.37e-01s  2.46e-07d  [DetectDominatedLinearConstraints] #relevant_constraints=10 
  4.15e-01s  0.00e+00d  [DetectDifferentVariables] 
  4.09e+00s  4.06e-02d  [ProcessSetPPC] #relevant_constraints=3'868'229 #num_inclusions=857'001 
  4.01e-01s  0.00e+00d  [FindAlmostIdenticalLinearConstraints] 
  9.44e-01s  1.55e-01d  [FindBigAtMostOneAndLinearOverlap] 
  2.87e-01s  4.87e-02d  [FindBigVerticalLinearOverlap] 
  4.56e-01s  4.10e-07d  [FindBigHorizontalLinearOverlap] #linears=10 
  1.66e+00s  1.49e-02d  [MergeClauses] #num_collisions=101'936 #num_merges=101'936 #num_saved_literals=487'253 
